(set-info :smt-lib-version 2.6)
(set-info :category "crafted")
(set-logic QF_FF)
(define-sort FF0 () (_ FiniteField 52435875175126190479447740508185965837690552500527637822603658699938581184513))
(declare-fun j () Bool)
(declare-fun e () Bool)
(declare-fun a () Bool)
(declare-fun h () Bool)
(declare-fun i () Bool)
(declare-fun f () Bool)
(declare-fun c () Bool)
(declare-fun b () Bool)
(declare-fun d () Bool)
(declare-fun g () Bool)
(declare-fun return_n0 () FF0)
(declare-fun mul_n128 () FF0)
(declare-fun mul_n66 () FF0)
(declare-fun mul_n127 () FF0)
(declare-fun mul_n14 () FF0)
(declare-fun mul_n12 () FF0)
(declare-fun e_n2 () FF0)
(declare-fun mul_n13 () FF0)
(declare-fun mul_n96 () FF0)
(declare-fun mul_n126 () FF0)
(declare-fun mul_n110 () FF0)
(declare-fun mul_n125 () FF0)
(declare-fun j_n3 () FF0)
(declare-fun mul_n63 () FF0)
(declare-fun mul_n52 () FF0)
(declare-fun mul_n111 () FF0)
(declare-fun mul_n109 () FF0)
(declare-fun mul_n124 () FF0)
(declare-fun mul_n54 () FF0)
(declare-fun mul_n113 () FF0)
(declare-fun mul_n123 () FF0)
(declare-fun mul_n81 () FF0)
(declare-fun mul_n15 () FF0)
(declare-fun mul_n82 () FF0)
(declare-fun mul_n114 () FF0)
(declare-fun mul_n112 () FF0)
(declare-fun mul_n122 () FF0)
(declare-fun mul_n115 () FF0)
(declare-fun mul_n56 () FF0)
(declare-fun mul_n121 () FF0)
(declare-fun mul_n116 () FF0)
(declare-fun mul_n120 () FF0)
(declare-fun mul_n53 () FF0)
(declare-fun mul_n119 () FF0)
(declare-fun mul_n95 () FF0)
(declare-fun mul_n117 () FF0)
(declare-fun mul_n118 () FF0)
(declare-fun mul_n80 () FF0)
(declare-fun mul_n79 () FF0)
(declare-fun mul_n92 () FF0)
(declare-fun mul_n69 () FF0)
(declare-fun mul_n65 () FF0)
(declare-fun mul_n76 () FF0)
(declare-fun mul_n108 () FF0)
(declare-fun mul_n107 () FF0)
(declare-fun mul_n37 () FF0)
(declare-fun mul_n106 () FF0)
(declare-fun d_n4 () FF0)
(declare-fun mul_n105 () FF0)
(declare-fun mul_n104 () FF0)
(declare-fun mul_n103 () FF0)
(declare-fun mul_n102 () FF0)
(declare-fun mul_n101 () FF0)
(declare-fun mul_n59 () FF0)
(declare-fun mul_n100 () FF0)
(declare-fun mul_n51 () FF0)
(declare-fun mul_n99 () FF0)
(declare-fun mul_n98 () FF0)
(declare-fun i_n5 () FF0)
(declare-fun mul_n17 () FF0)
(declare-fun mul_n60 () FF0)
(declare-fun mul_n97 () FF0)
(declare-fun mul_n73 () FF0)
(declare-fun f_n1 () FF0)
(declare-fun mul_n72 () FF0)
(declare-fun mul_n94 () FF0)
(declare-fun mul_n93 () FF0)
(declare-fun mul_n77 () FF0)
(declare-fun mul_n19 () FF0)
(declare-fun mul_n91 () FF0)
(declare-fun mul_n90 () FF0)
(declare-fun g_n9 () FF0)
(declare-fun mul_n89 () FF0)
(declare-fun mul_n88 () FF0)
(declare-fun mul_n87 () FF0)
(declare-fun mul_n86 () FF0)
(declare-fun mul_n85 () FF0)
(declare-fun mul_n84 () FF0)
(declare-fun mul_n83 () FF0)
(declare-fun mul_n16 () FF0)
(declare-fun mul_n78 () FF0)
(declare-fun mul_n75 () FF0)
(declare-fun mul_n21 () FF0)
(declare-fun mul_n74 () FF0)
(declare-fun mul_n64 () FF0)
(declare-fun mul_n71 () FF0)
(declare-fun mul_n68 () FF0)
(declare-fun a_n10 () FF0)
(declare-fun mul_n67 () FF0)
(declare-fun mul_n70 () FF0)
(declare-fun mul_n24 () FF0)
(declare-fun c_n6 () FF0)
(declare-fun b_n8 () FF0)
(declare-fun mul_n62 () FF0)
(declare-fun mul_n18 () FF0)
(declare-fun mul_n61 () FF0)
(declare-fun h_n7 () FF0)
(declare-fun mul_n58 () FF0)
(declare-fun mul_n57 () FF0)
(declare-fun mul_n55 () FF0)
(declare-fun mul_n50 () FF0)
(declare-fun mul_n49 () FF0)
(declare-fun mul_n11 () FF0)
(declare-fun mul_n48 () FF0)
(declare-fun mul_n47 () FF0)
(declare-fun mul_n46 () FF0)
(declare-fun mul_n45 () FF0)
(declare-fun mul_n44 () FF0)
(declare-fun mul_n43 () FF0)
(declare-fun mul_n42 () FF0)
(declare-fun mul_n41 () FF0)
(declare-fun mul_n40 () FF0)
(declare-fun mul_n39 () FF0)
(declare-fun mul_n38 () FF0)
(declare-fun mul_n36 () FF0)
(declare-fun mul_n35 () FF0)
(declare-fun mul_n34 () FF0)
(declare-fun mul_n33 () FF0)
(declare-fun mul_n32 () FF0)
(declare-fun mul_n31 () FF0)
(declare-fun mul_n30 () FF0)
(declare-fun mul_n29 () FF0)
(declare-fun mul_n28 () FF0)
(declare-fun mul_n27 () FF0)
(declare-fun mul_n26 () FF0)
(declare-fun mul_n25 () FF0)
(declare-fun mul_n23 () FF0)
(declare-fun mul_n22 () FF0)
(declare-fun mul_n20 () FF0)
(assert 
  (let ((let0 j))
  (let ((let1 e))
  (let ((let2 a))
  (let ((let3 h))
  (let ((let4 (= let0 let3)))
  (let ((let5 (ite let4 let2 let1)))
  (let ((let6 (=> let5 let0)))
  (let ((let7 (= let6 let5)))
  (let ((let8 (or let7 let6)))
  (let ((let9 (not let8)))
  (let ((let10 i))
  (let ((let11 f))
  (let ((let12 (=> let2 let11)))
  (let ((let13 c))
  (let ((let14 (ite let13 let12 let10)))
  (let ((let15 (not let14)))
  (let ((let16 (= let15 let9)))
  (let ((let17 (and let4 let7)))
  (let ((let18 (not let7)))
  (let ((let19 b))
  (let ((let20 (or let19 let13 let10)))
  (let ((let21 d))
  (let ((let22 (or let3 let21 let20 let1)))
  (let ((let23 g))
  (let ((let24 (and let23 let1 let2 let12 let22 let21 let13 let19 let11 let19 let3 let22 let0 let23)))
  (let ((let25 (or let21 let14 let20 let24 let24 let14 let13 let4 let2 let24 let1 let20 let4 let14)))
  (let ((let26 (=> let25 let25)))
  (let ((let27 (ite let23 let26 let0)))
  (let ((let28 (and let27 let22)))
  (let ((let29 (=> let26 let6)))
  (let ((let30 (and let25 let19 let29)))
  (let ((let31 (or let30 let28 let18 let3)))
  (let ((let32 (ite let31 let17 let15)))
  (let ((let33 (or let32 let16 let16)))
  (let ((let34 (ite let11 let19 let27)))
  (let ((let35 (=> let27 let34)))
  (let ((let36 (not let28)))
  (let ((let37 (=> let36 let35)))
  (let ((let38 (=> let13 let37)))
  (let ((let39 (not let38)))
  (let ((let40 (not let30)))
  (let ((let41 (ite let22 let40 let27)))
  (let ((let42 (= let2 let41)))
  (let ((let43 (or let11 let37)))
  (let ((let44 (and let43 let17 let42 let35)))
  (let ((let45 (ite let18 let12 let10)))
  (let ((let46 (not let34)))
  (let ((let47 (or let46 let30 let20 let45)))
  (let ((let48 (not let29)))
  (let ((let49 (ite let48 let10 let45)))
  (let ((let50 (not let48)))
  (let ((let51 (and let28 let50 let12)))
  (let ((let52 (=> let34 let21)))
  (let ((let53 (=> let52 let49)))
  (let ((let54 (= let53 let8)))
  (let ((let55 (or let15 let49 let51 let54 let48 let8 let51 let32 let23 let17 let17)))
  (let ((let56 (ite let55 let49 let47)))
  (let ((let57 (or let56 let31 let44)))
  (let ((let58 (ite let50 let57 let18)))
  (let ((let59 (or let11 let45 let32 let26 let26 let31 let30 let6 let47 let46 let21 let24 let8 let47)))
  (let ((let60 (or let59 let7)))
  (let ((let61 (= let59 let46)))
  (let ((let62 (ite let37 let43 let54)))
  (let ((let63 (ite let62 let53 let50)))
  (let ((let64 (ite let36 let55 let62)))
  (let ((let65 (ite let50 let51 let40)))
  (let ((let66 (ite let52 let46 let9)))
  (let ((let67 (= let28 let57)))
  (let ((let68 (and let57 let28)))
  (let ((let69 (and let68 let67 let36 let66 let65 let64 let63 let61 let60 let58 let39 let33)))
  (let ((let70 return_n0))
  (let ((let71 (as ff1 FF0)))
  (let ((let72 (= let71 let70)))
  (let ((let73 (= let72 let69)))
  (let ((let74 (as ff0 FF0)))
  (let ((let75 (= let74 let70)))
  (let ((let76 (or let72 let75)))
  (let ((let77 (and let76 let73)))
  (let ((let78 mul_n128))
  (let ((let79 mul_n66))
  (let ((let80 mul_n127))
  (let ((let81 (ff.mul let80 let79)))
  (let ((let82 (= let81 let78)))
  (let ((let83 (as ff52435875175126190479447740508185965837690552500527637822603658699938581184512 FF0)))
  (let ((let84 mul_n14))
  (let ((let85 (ff.mul let84 let83)))
  (let ((let86 mul_n12))
  (let ((let87 e_n2))
  (let ((let88 mul_n13))
  (let ((let89 (ff.mul let88 let83)))
  (let ((let90 mul_n96))
  (let ((let91 (ff.add let90 let89 let87 let86 let85 let71)))
  (let ((let92 mul_n126))
  (let ((let93 (ff.mul let92 let91)))
  (let ((let94 (= let93 let80)))
  (let ((let95 mul_n110))
  (let ((let96 (ff.mul let95 let83)))
  (let ((let97 (ff.add let96 let71)))
  (let ((let98 mul_n125))
  (let ((let99 (ff.mul let98 let97)))
  (let ((let100 (= let99 let92)))
  (let ((let101 j_n3))
  (let ((let102 mul_n63))
  (let ((let103 mul_n52))
  (let ((let104 mul_n111))
  (let ((let105 mul_n109))
  (let ((let106 (ff.add let105 let104 let103 let102 let101 let83)))
  (let ((let107 mul_n124))
  (let ((let108 (ff.mul let107 let106)))
  (let ((let109 (= let108 let98)))
  (let ((let110 mul_n54))
  (let ((let111 (ff.mul let110 let83)))
  (let ((let112 mul_n113))
  (let ((let113 (ff.add let112 let111 let71)))
  (let ((let114 mul_n123))
  (let ((let115 (ff.mul let114 let113)))
  (let ((let116 (= let115 let107)))
  (let ((let117 mul_n81))
  (let ((let118 mul_n15))
  (let ((let119 mul_n82))
  (let ((let120 mul_n114))
  (let ((let121 mul_n112))
  (let ((let122 (ff.add let121 let120 let119 let118 let117 let83)))
  (let ((let123 mul_n122))
  (let ((let124 (ff.mul let123 let122)))
  (let ((let125 (= let124 let114)))
  (let ((let126 mul_n115))
  (let ((let127 mul_n56))
  (let ((let128 (ff.mul let127 let83)))
  (let ((let129 (ff.add let128 let126 let71)))
  (let ((let130 mul_n121))
  (let ((let131 (ff.mul let130 let129)))
  (let ((let132 (= let131 let123)))
  (let ((let133 mul_n116))
  (let ((let134 (ff.add let133 let118)))
  (let ((let135 mul_n120))
  (let ((let136 (ff.mul let135 let134)))
  (let ((let137 (= let136 let130)))
  (let ((let138 mul_n53))
  (let ((let139 (ff.mul let138 let83)))
  (let ((let140 (ff.add let139 let71)))
  (let ((let141 mul_n119))
  (let ((let142 (ff.mul let141 let140)))
  (let ((let143 (= let142 let135)))
  (let ((let144 mul_n95))
  (let ((let145 mul_n117))
  (let ((let146 (ff.add let145 let139 let144)))
  (let ((let147 mul_n118))
  (let ((let148 (ff.mul let147 let146)))
  (let ((let149 (= let148 let141)))
  (let ((let150 (ff.mul let144 let83)))
  (let ((let151 (ff.add let150 let71)))
  (let ((let152 (ff.mul let151 let138)))
  (let ((let153 (= let152 let147)))
  (let ((let154 (as ff2 FF0)))
  (let ((let155 (ff.mul let138 let154)))
  (let ((let156 (ff.mul let155 let151)))
  (let ((let157 (= let156 let145)))
  (let ((let158 (ff.mul let101 let83)))
  (let ((let159 (ff.mul let118 let83)))
  (let ((let160 (ff.mul let103 let83)))
  (let ((let161 (ff.mul let102 let83)))
  (let ((let162 (ff.add let161 let160 let159 let158 let71)))
  (let ((let163 mul_n80))
  (let ((let164 (ff.mul let163 let83)))
  (let ((let165 (ff.add let164 let71)))
  (let ((let166 (ff.mul let165 let162)))
  (let ((let167 (= let166 let133)))
  (let ((let168 mul_n79))
  (let ((let169 (ff.add let127 let168 let83)))
  (let ((let170 (ff.add let111 let71)))
  (let ((let171 (ff.mul let170 let169)))
  (let ((let172 (= let171 let126)))
  (let ((let173 (ff.mul let117 let83)))
  (let ((let174 mul_n92))
  (let ((let175 (ff.mul let174 let83)))
  (let ((let176 (ff.mul let119 let83)))
  (let ((let177 (ff.mul let121 let83)))
  (let ((let178 (ff.add let177 let176 let159 let175 let173 let154)))
  (let ((let179 (ff.mul let140 let178)))
  (let ((let180 (= let179 let120)))
  (let ((let181 (ff.add let173 let110)))
  (let ((let182 (ff.add let121 let119 let118 let117 let83)))
  (let ((let183 (ff.mul let182 let181)))
  (let ((let184 (= let183 let112)))
  (let ((let185 mul_n69))
  (let ((let186 (ff.mul let185 let83)))
  (let ((let187 (ff.add let186 let176 let159 let173 let154)))
  (let ((let188 mul_n65))
  (let ((let189 (ff.mul let188 let83)))
  (let ((let190 (ff.add let189 let71)))
  (let ((let191 (ff.mul let190 let187)))
  (let ((let192 (= let191 let121)))
  (let ((let193 (ff.add let160 let161 let158 let71)))
  (let ((let194 (as ff52435875175126190479447740508185965837690552500527637822603658699938581184511 FF0)))
  (let ((let195 (ff.mul let105 let194)))
  (let ((let196 (ff.add let195 let154)))
  (let ((let197 (ff.mul let196 let193)))
  (let ((let198 (= let197 let104)))
  (let ((let199 (ff.add let89 let87 let86 let85 let71)))
  (let ((let200 (ff.mul let105 let199)))
  (let ((let201 (= let200 let95)))
  (let ((let202 mul_n76))
  (let ((let203 mul_n108))
  (let ((let204 (ff.mul let203 let202)))
  (let ((let205 (= let204 let105)))
  (let ((let206 mul_n107))
  (let ((let207 (ff.mul let206 let118)))
  (let ((let208 (= let207 let203)))
  (let ((let209 mul_n37))
  (let ((let210 (ff.mul let209 let83)))
  (let ((let211 (ff.add let210 let71)))
  (let ((let212 mul_n106))
  (let ((let213 (ff.mul let212 let211)))
  (let ((let214 (= let213 let206)))
  (let ((let215 d_n4))
  (let ((let216 (ff.mul let215 let83)))
  (let ((let217 (ff.add let216 let71)))
  (let ((let218 mul_n105))
  (let ((let219 (ff.mul let218 let217)))
  (let ((let220 (= let219 let212)))
  (let ((let221 (ff.add let103 let101 let102)))
  (let ((let222 mul_n104))
  (let ((let223 (ff.mul let222 let221)))
  (let ((let224 (= let223 let218)))
  (let ((let225 mul_n103))
  (let ((let226 (ff.mul let225 let202)))
  (let ((let227 (= let226 let222)))
  (let ((let228 mul_n102))
  (let ((let229 (ff.mul let228 let88)))
  (let ((let230 (= let229 let225)))
  (let ((let231 (ff.add let128 let71)))
  (let ((let232 mul_n101))
  (let ((let233 (ff.mul let232 let231)))
  (let ((let234 (= let233 let228)))
  (let ((let235 mul_n59))
  (let ((let236 mul_n100))
  (let ((let237 (ff.mul let236 let235)))
  (let ((let238 (= let237 let232)))
  (let ((let239 mul_n51))
  (let ((let240 mul_n99))
  (let ((let241 (ff.mul let240 let239)))
  (let ((let242 (= let241 let236)))
  (let ((let243 mul_n98))
  (let ((let244 (ff.mul let243 let239)))
  (let ((let245 (= let244 let240)))
  (let ((let246 i_n5))
  (let ((let247 mul_n17))
  (let ((let248 mul_n60))
  (let ((let249 (ff.mul let248 let83)))
  (let ((let250 (ff.add let249 let247 let246)))
  (let ((let251 mul_n97))
  (let ((let252 (ff.mul let251 let250)))
  (let ((let253 (= let252 let243)))
  (let ((let254 (ff.mul let246 let83)))
  (let ((let255 mul_n73))
  (let ((let256 (ff.mul let255 let83)))
  (let ((let257 (ff.add let256 let254 let71)))
  (let ((let258 f_n1))
  (let ((let259 (ff.mul let258 let83)))
  (let ((let260 (ff.add let259 let71)))
  (let ((let261 (ff.mul let260 let257)))
  (let ((let262 (= let261 let251)))
  (let ((let263 (ff.mul let86 let83)))
  (let ((let264 (ff.mul let87 let83)))
  (let ((let265 (ff.add let88 let264 let150 let263 let84)))
  (let ((let266 (ff.mul let170 let265)))
  (let ((let267 (= let266 let90)))
  (let ((let268 mul_n72))
  (let ((let269 (ff.mul let268 let83)))
  (let ((let270 (ff.add let269 let71)))
  (let ((let271 mul_n94))
  (let ((let272 (ff.mul let271 let270)))
  (let ((let273 (= let272 let144)))
  (let ((let274 mul_n93))
  (let ((let275 (ff.mul let274 let83)))
  (let ((let276 (ff.add let202 let275)))
  (let ((let277 (ff.mul let276 let235)))
  (let ((let278 (= let277 let271)))
  (let ((let279 mul_n77))
  (let ((let280 (ff.add let279 let246 let202 let255 let83)))
  (let ((let281 (ff.add let175 let71)))
  (let ((let282 (ff.mul let281 let280)))
  (let ((let283 (= let282 let274)))
  (let ((let284 mul_n19))
  (let ((let285 (ff.mul let284 let83)))
  (let ((let286 (ff.add let285 let71)))
  (let ((let287 mul_n91))
  (let ((let288 (ff.mul let287 let286)))
  (let ((let289 (= let288 let174)))
  (let ((let290 mul_n90))
  (let ((let291 (ff.mul let290 let286)))
  (let ((let292 (= let291 let287)))
  (let ((let293 g_n9))
  (let ((let294 (ff.mul let293 let83)))
  (let ((let295 (ff.add let294 let71)))
  (let ((let296 mul_n89))
  (let ((let297 (ff.mul let296 let295)))
  (let ((let298 (= let297 let290)))
  (let ((let299 mul_n88))
  (let ((let300 (ff.mul let299 let250)))
  (let ((let301 (= let300 let296)))
  (let ((let302 (ff.mul let168 let83)))
  (let ((let303 (ff.add let302 let71)))
  (let ((let304 mul_n87))
  (let ((let305 (ff.mul let304 let303)))
  (let ((let306 (= let305 let299)))
  (let ((let307 mul_n86))
  (let ((let308 (ff.mul let307 let118)))
  (let ((let309 (= let308 let304)))
  (let ((let310 mul_n85))
  (let ((let311 (ff.mul let310 let170)))
  (let ((let312 (= let311 let307)))
  (let ((let313 (ff.add let173 let176 let159 let154)))
  (let ((let314 mul_n84))
  (let ((let315 (ff.mul let314 let313)))
  (let ((let316 (= let315 let310)))
  (let ((let317 mul_n83))
  (let ((let318 (ff.mul let317 let303)))
  (let ((let319 (= let318 let314)))
  (let ((let320 (ff.mul let279 let83)))
  (let ((let321 (ff.add let320 let256 let254 let71)))
  (let ((let322 (ff.add let247 let246)))
  (let ((let323 (ff.mul let322 let321)))
  (let ((let324 (= let323 let317)))
  (let ((let325 (ff.add let159 let71)))
  (let ((let326 (ff.mul let117 let194)))
  (let ((let327 (ff.add let326 let154)))
  (let ((let328 (ff.mul let327 let325)))
  (let ((let329 (= let328 let119)))
  (let ((let330 (ff.mul let165 let321)))
  (let ((let331 (= let330 let117)))
  (let ((let332 (ff.mul let221 let217)))
  (let ((let333 (= let332 let163)))
  (let ((let334 mul_n16))
  (let ((let335 (ff.mul let334 let83)))
  (let ((let336 (ff.add let335 let71)))
  (let ((let337 mul_n78))
  (let ((let338 (ff.mul let337 let336)))
  (let ((let339 (= let338 let168)))
  (let ((let340 (ff.mul let138 let170)))
  (let ((let341 (= let340 let337)))
  (let ((let342 (ff.mul let110 let256)))
  (let ((let343 (= let342 let279)))
  (let ((let344 mul_n75))
  (let ((let345 (ff.mul let344 let257)))
  (let ((let346 (= let345 let202)))
  (let ((let347 mul_n21))
  (let ((let348 mul_n74))
  (let ((let349 (ff.mul let348 let347)))
  (let ((let350 (= let349 let344)))
  (let ((let351 (ff.mul let221 let231)))
  (let ((let352 (= let351 let348)))
  (let ((let353 (ff.add let335 let254 let71)))
  (let ((let354 (ff.mul let199 let353)))
  (let ((let355 (= let354 let255)))
  (let ((let356 mul_n64))
  (let ((let357 (ff.mul let356 let83)))
  (let ((let358 (ff.add let357 let71)))
  (let ((let359 mul_n71))
  (let ((let360 (ff.mul let359 let358)))
  (let ((let361 (= let360 let268)))
  (let ((let362 mul_n68))
  (let ((let363 a_n10))
  (let ((let364 (ff.mul let363 let83)))
  (let ((let365 mul_n67))
  (let ((let366 (ff.mul let365 let83)))
  (let ((let367 (ff.add let366 let364 let362 let160 let158 let71)))
  (let ((let368 mul_n70))
  (let ((let369 (ff.mul let368 let367)))
  (let ((let370 (= let369 let359)))
  (let ((let371 (ff.add let186 let71)))
  (let ((let372 (ff.mul let371 let284)))
  (let ((let373 (= let372 let368)))
  (let ((let374 (ff.mul let260 let188)))
  (let ((let375 (= let374 let185)))
  (let ((let376 (ff.add let103 let101 let365)))
  (let ((let377 (ff.mul let363 let154)))
  (let ((let378 (ff.mul let377 let376)))
  (let ((let379 (= let378 let362)))
  (let ((let380 (ff.add let128 let160 let158 let71)))
  (let ((let381 mul_n24))
  (let ((let382 (ff.mul let381 let83)))
  (let ((let383 (ff.add let382 let71)))
  (let ((let384 (ff.mul let383 let380)))
  (let ((let385 (= let384 let365)))
  (let ((let386 c_n6))
  (let ((let387 (ff.mul let386 let188)))
  (let ((let388 (= let387 let79)))
  (let ((let389 (ff.mul let140 let356)))
  (let ((let390 (= let389 let188)))
  (let ((let391 (ff.add let103 let101)))
  (let ((let392 (ff.mul let391 let193)))
  (let ((let393 (= let392 let356)))
  (let ((let394 b_n8))
  (let ((let395 (ff.add let394 let160 let158)))
  (let ((let396 (ff.mul let258 let395)))
  (let ((let397 (= let396 let102)))
  (let ((let398 mul_n62))
  (let ((let399 (ff.mul let247 let83)))
  (let ((let400 mul_n18))
  (let ((let401 (ff.mul let400 let83)))
  (let ((let402 (ff.add let254 let401 let118 let399 let71)))
  (let ((let403 mul_n61))
  (let ((let404 (ff.mul let403 let402)))
  (let ((let405 (= let404 let398)))
  (let ((let406 (ff.mul let250 let402)))
  (let ((let407 (= let406 let403)))
  (let ((let408 (ff.add let247 let246 let284 let83)))
  (let ((let409 (ff.mul let235 let83)))
  (let ((let410 (ff.add let409 let71)))
  (let ((let411 (ff.mul let410 let408)))
  (let ((let412 (= let411 let248)))
  (let ((let413 h_n7))
  (let ((let414 (ff.mul let413 let83)))
  (let ((let415 (ff.add let414 let71)))
  (let ((let416 mul_n58))
  (let ((let417 (ff.mul let416 let415)))
  (let ((let418 (= let417 let235)))
  (let ((let419 (ff.add let88 let264 let263 let84)))
  (let ((let420 mul_n57))
  (let ((let421 (ff.mul let420 let419)))
  (let ((let422 (= let421 let416)))
  (let ((let423 (ff.mul let231 let140)))
  (let ((let424 (= let423 let420)))
  (let ((let425 mul_n55))
  (let ((let426 (ff.mul let425 let170)))
  (let ((let427 (= let426 let127)))
  (let ((let428 mul_n50))
  (let ((let429 (ff.mul let428 let83)))
  (let ((let430 (ff.add let429 let71)))
  (let ((let431 (ff.mul let430 let394)))
  (let ((let432 (= let431 let425)))
  (let ((let433 (ff.mul let239 let83)))
  (let ((let434 (ff.add let433 let71)))
  (let ((let435 (ff.mul let434 let88)))
  (let ((let436 (= let435 let110)))
  (let ((let437 (ff.mul let391 let383)))
  (let ((let438 (= let437 let138)))
  (let ((let439 (ff.add let158 let433 let71)))
  (let ((let440 (ff.mul let293 let439)))
  (let ((let441 (= let440 let103)))
  (let ((let442 (ff.mul let430 let428)))
  (let ((let443 (= let442 let239)))
  (let ((let444 (ff.add let399 let254 let71)))
  (let ((let445 mul_n49))
  (let ((let446 (ff.mul let445 let444)))
  (let ((let447 (= let446 let428)))
  (let ((let448 mul_n11))
  (let ((let449 (ff.mul let448 let83)))
  (let ((let450 (ff.add let413 let449 let101)))
  (let ((let451 mul_n48))
  (let ((let452 (ff.mul let451 let450)))
  (let ((let453 (= let452 let445)))
  (let ((let454 mul_n47))
  (let ((let455 (ff.mul let454 let347)))
  (let ((let456 (= let455 let451)))
  (let ((let457 (ff.add let264 let71)))
  (let ((let458 mul_n46))
  (let ((let459 (ff.mul let458 let457)))
  (let ((let460 (= let459 let454)))
  (let ((let461 mul_n45))
  (let ((let462 (ff.mul let461 let211)))
  (let ((let463 (= let462 let458)))
  (let ((let464 (ff.add let364 let71)))
  (let ((let465 mul_n44))
  (let ((let466 (ff.mul let465 let464)))
  (let ((let467 (= let466 let461)))
  (let ((let468 mul_n43))
  (let ((let469 (ff.mul let468 let450)))
  (let ((let470 (= let469 let465)))
  (let ((let471 (ff.mul let386 let83)))
  (let ((let472 (ff.add let471 let71)))
  (let ((let473 mul_n42))
  (let ((let474 (ff.mul let473 let472)))
  (let ((let475 (= let474 let468)))
  (let ((let476 mul_n41))
  (let ((let477 (ff.mul let476 let444)))
  (let ((let478 (= let477 let473)))
  (let ((let479 mul_n40))
  (let ((let480 (ff.mul let479 let211)))
  (let ((let481 (= let480 let476)))
  (let ((let482 mul_n39))
  (let ((let483 (ff.mul let482 let211)))
  (let ((let484 (= let483 let479)))
  (let ((let485 mul_n38))
  (let ((let486 (ff.mul let485 let347)))
  (let ((let487 (= let486 let482)))
  (let ((let488 (ff.mul let217 let444)))
  (let ((let489 (= let488 let485)))
  (let ((let490 mul_n36))
  (let ((let491 (ff.mul let490 let293)))
  (let ((let492 (= let491 let209)))
  (let ((let493 mul_n35))
  (let ((let494 (ff.mul let493 let101)))
  (let ((let495 (= let494 let490)))
  (let ((let496 mul_n34))
  (let ((let497 (ff.mul let496 let383)))
  (let ((let498 (= let497 let493)))
  (let ((let499 mul_n33))
  (let ((let500 (ff.mul let499 let413)))
  (let ((let501 (= let500 let496)))
  (let ((let502 mul_n32))
  (let ((let503 (ff.mul let502 let394)))
  (let ((let504 (= let503 let499)))
  (let ((let505 mul_n31))
  (let ((let506 (ff.mul let505 let258)))
  (let ((let507 (= let506 let502)))
  (let ((let508 mul_n30))
  (let ((let509 (ff.mul let508 let394)))
  (let ((let510 (= let509 let505)))
  (let ((let511 mul_n29))
  (let ((let512 (ff.mul let511 let386)))
  (let ((let513 (= let512 let508)))
  (let ((let514 mul_n28))
  (let ((let515 (ff.mul let514 let215)))
  (let ((let516 (= let515 let511)))
  (let ((let517 mul_n27))
  (let ((let518 (ff.mul let517 let383)))
  (let ((let519 (= let518 let514)))
  (let ((let520 mul_n26))
  (let ((let521 (ff.mul let520 let336)))
  (let ((let522 (= let521 let517)))
  (let ((let523 mul_n25))
  (let ((let524 (ff.mul let523 let363)))
  (let ((let525 (= let524 let520)))
  (let ((let526 (ff.mul let293 let87)))
  (let ((let527 (= let526 let523)))
  (let ((let528 mul_n23))
  (let ((let529 (ff.mul let528 let457)))
  (let ((let530 (= let529 let381)))
  (let ((let531 mul_n22))
  (let ((let532 (ff.mul let531 let347)))
  (let ((let533 (= let532 let528)))
  (let ((let534 (ff.mul let415 let217)))
  (let ((let535 (= let534 let531)))
  (let ((let536 (ff.add let254 let71)))
  (let ((let537 mul_n20))
  (let ((let538 (ff.mul let537 let536)))
  (let ((let539 (= let538 let347)))
  (let ((let540 (ff.mul let394 let83)))
  (let ((let541 (ff.add let540 let71)))
  (let ((let542 (ff.mul let541 let472)))
  (let ((let543 (= let542 let537)))
  (let ((let544 (ff.add let158 let414 let448 let71)))
  (let ((let545 (ff.mul let544 let419)))
  (let ((let546 (= let545 let284)))
  (let ((let547 (ff.mul let246 let194)))
  (let ((let548 (ff.mul let247 let194)))
  (let ((let549 (ff.add let548 let547 let154)))
  (let ((let550 (ff.mul let549 let118)))
  (let ((let551 (= let550 let400)))
  (let ((let552 (ff.mul let386 let353)))
  (let ((let553 (= let552 let247)))
  (let ((let554 (ff.mul let363 let260)))
  (let ((let555 (= let554 let334)))
  (let ((let556 (ff.mul let199 let88)))
  (let ((let557 (= let556 let118)))
  (let ((let558 (ff.add let86 let87)))
  (let ((let559 (ff.mul let88 let194)))
  (let ((let560 (ff.add let559 let154)))
  (let ((let561 (ff.mul let560 let558)))
  (let ((let562 (= let561 let84)))
  (let ((let563 (ff.add let158 let71)))
  (let ((let564 (ff.mul let558 let563)))
  (let ((let565 (= let564 let88)))
  (let ((let566 (ff.add let363 let264)))
  (let ((let567 (ff.mul let544 let566)))
  (let ((let568 (= let567 let86)))
  (let ((let569 (ff.mul let101 let154)))
  (let ((let570 (ff.mul let569 let413)))
  (let ((let571 (= let570 let448)))
  (let ((let572 (and let571 let568 let565 let562 let557 let555 let553 let551 let546 let543 let539 let535 let533 let530 let527 let525 let522 let519 let516 let513 let510 let507 let504 let501 let498 let495 let492 let489 let487 let484 let481 let478 let475 let470 let467 let463 let460 let456 let453 let447 let443 let441 let438 let436 let432 let427 let424 let422 let418 let412 let407 let405 let397 let393 let390 let388 let385 let379 let375 let373 let370 let361 let355 let352 let350 let346 let343 let341 let339 let333 let331 let329 let324 let319 let316 let312 let309 let306 let301 let298 let292 let289 let283 let278 let273 let267 let262 let253 let245 let242 let238 let234 let230 let227 let224 let220 let214 let208 let205 let201 let198 let192 let184 let180 let172 let167 let157 let153 let149 let143 let137 let132 let125 let116 let109 let100 let94 let82)))
  (let ((let573 (ite let0 let71 let74)))
  (let ((let574 (= let101 let573)))
  (let ((let575 (ite let1 let71 let74)))
  (let ((let576 (= let87 let575)))
  (let ((let577 (ite let19 let71 let74)))
  (let ((let578 (= let394 let577)))
  (let ((let579 (ite let3 let71 let74)))
  (let ((let580 (= let413 let579)))
  (let ((let581 (ite let21 let71 let74)))
  (let ((let582 (= let215 let581)))
  (let ((let583 (ite let11 let71 let74)))
  (let ((let584 (= let258 let583)))
  (let ((let585 (ite let23 let71 let74)))
  (let ((let586 (= let293 let585)))
  (let ((let587 (ite let13 let71 let74)))
  (let ((let588 (= let386 let587)))
  (let ((let589 (ite let10 let71 let74)))
  (let ((let590 (= let246 let589)))
  (let ((let591 (ite let2 let71 let74)))
  (let ((let592 (= let363 let591)))
  (let ((let593 (and let592 let590 let588 let586 let584 let582 let580 let578 let576 let574)))
  (let ((let594 (and let593 let572)))
  (let ((let595 (=> let594 let77)))
  (let ((let596 (not let595)))
  let596
)))))))))))))))))))))))))))))))))))))))))))))))))))))))))))))))))))))))))))))))))))))))))))))))))))))))))))))))))))))))))))))))))))))))))))))))))))))))))))))))))))))))))))))))))))))))))))))))))))))))))))))))))))))))))))))))))))))))))))))))))))))))))))))))))))))))))))))))))))))))))))))))))))))))))))))))))))))))))))))))))))))))))))))))))))))))))))))))))))))))))))))))))))))))))))))))))))))))))))))))))))))))))))))))))))))))))))))))))))))))))))))))))))))))))))))))))))))))))))))))))))))))))))))))))))))))))))))))))))))))))))))))))))))))))))))))))))))))))))))))))))))))))))))))))))))))))))))))))))))
)
(check-sat)
